0 1
0 5
0 15
0 31
1 4
1 23
1 24
1 28
2 11
2 29
3 6
3 14
3 22
3 26
4 5
4 17
4 18
4 25
5 24
7 10
7 22
8 27
9 20
9 22
9 30
10 11
10 22
10 23
10 27
10 29
11 12
11 18
12 25
12 28
13 14
13 21
13 30
14 15
14 19
15 20
15 26
16 18
16 23
16 27
17 21
18 31
19 24
20 31
22 27
22 29
23 30
24 27
24 29
24 31
28 31
